100
30
22
7
15
25
14
31
19
20
25
7
30
25
28
15
6
20
8
12
28
32
16
7
1
12
20
24
14
16
2
9
6
7
26
4
8
6
17
18
16
28
21
21
23
2
17
13
1
28
14
18
26
15
20
4
21
15
21
20
27
14
29
28
19
23
4
17
17
13
18
25
3
31
24
11
18
7
17
24
10
23
1
2
32
24
4
6
7
9
31
12
21
20
17
28
5
24
25
32
13
3